clingo version 5.7.1 (849f282)
Reading from ES_hexagons_mod.lp
Reading      : 3.607
Preprocessing: 2.736
Sat-Prepro   :Sat-Prepro   : S:        0/1054535 Sat-Prepro   : S:     8192/1054535 Sat-Prepro   : S:    16384/1054535 Sat-Prepro   : S:    24576/1054535 Sat-Prepro   : S:    32768/1054535 Sat-Prepro   : S:    40960/1054535 Sat-Prepro   : S:    49152/1054535 Sat-Prepro   : S:    57344/1054535 Sat-Prepro   : S:    65536/1054535 Sat-Prepro   : S:    73728/1054535 Sat-Prepro   : S:    81920/1054535 Sat-Prepro   : S:    90112/1054535 Sat-Prepro   : S:    98304/1054535 Sat-Prepro   : S:   106496/1054535 Sat-Prepro   : S:   114688/1054535 Sat-Prepro   : S:   122880/1054535 Sat-Prepro   : S:   131072/1054535 Sat-Prepro   : S:   139264/1054535 Sat-Prepro   : S:   147456/1054535 Sat-Prepro   : S:   155648/1054535 Sat-Prepro   : S:   163840/1054535 Sat-Prepro   : S:   172032/1054535 Sat-Prepro   : S:   180224/1054535 Sat-Prepro   : S:   188416/1054535 Sat-Prepro   : S:   196608/1054535 Sat-Prepro   : S:   204800/1054535 Sat-Prepro   : S:   212992/1054535 Sat-Prepro   : S:   221184/1054535 Sat-Prepro   : S:   229376/1054535 Sat-Prepro   : S:   237568/1054535 Sat-Prepro   : S:   245760/1054535 Sat-Prepro   : S:   253952/1054535 Sat-Prepro   : S:   262144/1054535 Sat-Prepro   : S:   270336/1054535 Sat-Prepro   : S:   278528/1054535 Sat-Prepro   : S:   286720/1054535 Sat-Prepro   : S:   294912/1054535 Sat-Prepro   : S:   303104/1054535 Sat-Prepro   : S:   311296/1054535 Sat-Prepro   : S:   319488/1054535 Sat-Prepro   : S:   327680/1054535 Sat-Prepro   : S:   335872/1054535 Sat-Prepro   : S:   344064/1054535 Sat-Prepro   : S:   352256/1054535 Sat-Prepro   : S:   360448/1054535 Sat-Prepro   : S:   368640/1054535 Sat-Prepro   : S:   376832/1054535 Sat-Prepro   : S:   385024/1054535 Sat-Prepro   : S:   393216/1054535 Sat-Prepro   : S:   401408/1054535 Sat-Prepro   : S:   409600/1054535 Sat-Prepro   : S:   417792/1054535 Sat-Prepro   : S:   425984/1054535 Sat-Prepro   : S:   434176/1054535 Sat-Prepro   : S:   442368/1054535 Sat-Prepro   : S:   450560/1054535 Sat-Prepro   : S:   458752/1054535 Sat-Prepro   : S:   466944/1054535 Sat-Prepro   : S:   475136/1054535 Sat-Prepro   : S:   483328/1054535 Sat-Prepro   : S:   491520/1054535 Sat-Prepro   : S:   499712/1054535 Sat-Prepro   : S:   507904/1054535 Sat-Prepro   : S:   516096/1054535 Sat-Prepro   : S:   524288/1054535 Sat-Prepro   : S:   532480/1054535 Sat-Prepro   : S:   540672/1054535 Sat-Prepro   : S:   548864/1054535 Sat-Prepro   : S:   557056/1054535 Sat-Prepro   : S:   565248/1054535 Sat-Prepro   : S:   573440/1054535 Sat-Prepro   : S:   581632/1054535 Sat-Prepro   : S:   589824/1054535 Sat-Prepro   : S:   598016/1054535 Sat-Prepro   : S:   606208/1054535 Sat-Prepro   : S:   614400/1054535 Sat-Prepro   : S:   622592/1054535 Sat-Prepro   : S:   630784/1054535 Sat-Prepro   : S:   638976/1054535 Sat-Prepro   : S:   647168/1054535 Sat-Prepro   : S:   655360/1054535 Sat-Prepro   : S:   663552/1054535 Sat-Prepro   : S:   671744/1054535 Sat-Prepro   : S:   679936/1054535 Sat-Prepro   : S:   688128/1054535 Sat-Prepro   : S:   696320/1054535 Sat-Prepro   : S:   704512/1054535 Sat-Prepro   : S:   712704/1054535 Sat-Prepro   : S:   720896/1054535 Sat-Prepro   : S:   729088/1054535 Sat-Prepro   : S:   737280/1054535 Sat-Prepro   : S:   745472/1054535 Sat-Prepro   : S:   753664/1054535 Sat-Prepro   : S:   761856/1054535 Sat-Prepro   : S:   770048/1054535 Sat-Prepro   : S:   778240/1054535 Sat-Prepro   : S:   786432/1054535 Sat-Prepro   : S:   794624/1054535 Sat-Prepro   : S:   802816/1054535 Sat-Prepro   : S:   811008/1054535 Sat-Prepro   : S:   819200/1054535 Sat-Prepro   : S:   827392/1054535 Sat-Prepro   : S:   835584/1054535 Sat-Prepro   : S:   843776/1054535 Sat-Prepro   : S:   851968/1054535 Sat-Prepro   : S:   860160/1054535 Sat-Prepro   : S:   868352/1054535 Sat-Prepro   : S:   876544/1054535 Sat-Prepro   : S:   884736/1054535 Sat-Prepro   : S:   892928/1054535 Sat-Prepro   : S:   901120/1054535 Sat-Prepro   : S:   909312/1054535 Sat-Prepro   : S:   917504/1054535 Sat-Prepro   : S:   925696/1054535 Sat-Prepro   : S:   933888/1054535 Sat-Prepro   : S:   942080/1054535 Sat-Prepro   : S:   950272/1054535 Sat-Prepro   : S:   958464/1054535 Sat-Prepro   : S:   966656/1054535 Sat-Prepro   : S:   974848/1054535 Sat-Prepro   : S:   983040/1054535 Sat-Prepro   : S:   991232/1054535 Sat-Prepro   : S:   999424/1054535 Sat-Prepro   : S:  1007616/1054535 Sat-Prepro   : S:  1015808/1054990 Sat-Prepro   : S:  1024000/1054990 Sat-Prepro   : S:  1032192/1054990 Sat-Prepro   : S:  1040384/1054990 Sat-Prepro   : S:  1048576/1054990 Sat-Prepro   : B:        0/43017   Sat-Prepro   : B:     8192/34827   Sat-Prepro   : B:    16384/26639   Sat-Prepro   : B:    24576/18457   Sat-Prepro   : B:    32768/10277   Sat-Prepro   : B:    40960/2085    Sat-Prepro   : E:        0/43017   Sat-Prepro   : E:     8192/34825   Sat-Prepro   : E:    16384/26633   Sat-Prepro   : E:    24576/18441   Sat-Prepro   : E:    32768/10249   Sat-Prepro   : E:    40960/2066    Sat-Prepro   : B:        0/10656   Sat-Prepro   : B:     8192/2464    Sat-Prepro   : 7.770 (ClRemoved: 333114 ClAdded: 91544 LitsStr: 455)
Solving...
----------------------------------------------------------------------------|
ID:T       Vars           Constraints         State            Limits       |
       #free/#fixed   #problem/#learnt  #conflicts/ratio #conflict/#learnt  |
----------------------------------------------------------------------------|
 0:R|  11044/816    |  814282/0       |         0/0.000 |     100/40200     |
 0:R|  11044/816    |  814282/102     |       102/0.515 |     150/40200     |
 0:R|  11044/816    |  814282/253     |       254/0.461 |     225/40200     |
 0:R|  11044/816    |  814282/475     |       479/0.499 |     337/40200     |
 0:R|  11044/816    |  814282/808     |       816/0.550 |     506/40200     |
 0:R|  11044/816    |  814282/1311    |      1322/0.552 |     759/40200     |
 0:R|  11044/816    |  814282/2068    |      2081/0.572 |    1139/40200     |
 0:R|  11044/816    |  814282/3201    |      3220/0.568 |    1708/40200     |
 0:R|  11044/816    |  814282/4901    |      4929/0.571 |    2562/40200     |
 0:R|  11044/816    |  814282/7445    |      7491/0.575 |    3844/40200     |
 0:R|  11044/816    |  814282/11273   |     11336/0.580 |    5766/40200     |
 0:R|  11044/816    |  814282/17018   |     17103/0.596 |    8649/40200     |
 0:R|  11044/816    |  814282/25627   |     25753/0.614 |   12974/40200     |
 0:R|  11044/816    |  814282/38572   |     38729/0.628 |   19461/44220     |
 0:D|   8352/816    |  814282/11056   |     44390/0.633 |   13800/44220     |
 0:R|  11044/816    |  814282/24826   |     58190/0.644 |   29192/48642     |
 0:D|   9180/816    |  814282/12162   |     82083/0.662 |    5299/48642     |
 0:R|  11044/816    |  814282/17450   |     87382/0.665 |   43789/53506     |
 0:D|   9153/816    |  814282/13377   |    123503/0.672 |    7668/53506     |
 0:R|  11044/816    |  814282/21023   |    131171/0.674 |   65684/58856     |
----------------------------------------------------------------------------|
ID:T       Vars           Constraints         State            Limits       |
       #free/#fixed   #problem/#learnt  #conflicts/ratio #conflict/#learnt  |
----------------------------------------------------------------------------|
 0:D|   8694/816    |  814282/14715   |    169078/0.679 |   27777/58856     |
 0:R|  11044/816    |  814282/42451   |    196856/0.683 |   98526/64742     |
 0:D|   9828/816    |  814282/16186   |    219205/0.680 |   76177/64742     |
 0:D|  10091/816    |  814282/16187   |    267834/0.683 |   27548/64742     |
 0:R|  11044/816    |  814282/43696   |    295385/0.685 |  147789/71216     |
 0:D|   8814/816    |  814282/17805   |    322953/0.684 |  120221/71216     |
 0:D|   8553/816    |  814282/17805   |    376435/0.686 |   66739/71216     |
 0:D|   9722/816    |  814282/17805   |    429891/0.691 |   13283/71216     |
 0:R|  11044/816    |  814282/31073   |    443174/0.692 |  221683/78338     |
 0:D|   9644/816    |  814282/19585   |    490506/0.692 |  174351/78338     |
 0:D|   9530/816    |  814282/19585   |    549336/0.693 |  115521/78338     |
 0:D|  10101/816    |  814282/19585   |    608163/0.694 |   56694/78338     |
 0:R|  11044/816    |  814282/76225   |    664859/0.696 |  332525/86172     |
 0:D|   9975/816    |  814282/21544   |    674828/0.695 |  322556/86172     |
 0:D|   8212/816    |  814282/21544   |    739533/0.694 |  257851/86172     |
 0:D|  10924/816    |  814282/21544   |    804224/0.695 |  193160/86172     |
 0:D|   8163/816    |  814282/21544   |    868901/0.697 |  128483/86172     |
 0:D|  10391/816    |  814282/21544   |    933583/0.698 |   63801/86172     |
 0:R|  11044/816    |  814282/85284   |    997384/0.699 |  498788/94789     |
 0:D|  10109/816    |  814282/23698   |   1006907/0.699 |  489265/94789     |
----------------------------------------------------------------------------|
ID:T       Vars           Constraints         State            Limits       |
       #free/#fixed   #problem/#learnt  #conflicts/ratio #conflict/#learnt  |
----------------------------------------------------------------------------|
 0:D|  10512/816    |  814282/23699   |   1078062/0.700 |  418110/94789     |
 0:D|   8870/816    |  814282/23698   |   1149201/0.702 |  346971/94789     |
 0:D|   9914/816    |  814282/23698   |   1220345/0.703 |  275827/94789     |
 0:D|   9138/816    |  814282/23698   |   1291481/0.704 |  204691/94789     |
 0:D|   8773/816    |  814282/23698   |   1362630/0.705 |  133542/94789     |
 0:D|   9172/816    |  814282/23698   |   1433764/0.706 |   62408/94789     |
 0:R|  11044/816    |  814282/86063   |   1496175/0.707 |  748182/104268    |
 0:D|   9244/816    |  814282/26068   |   1514403/0.706 |  729954/104268    |
 0:D|  10003/816    |  814282/26068   |   1592678/0.707 |  651679/104268    |
 0:D|   9683/816    |  814282/26068   |   1670930/0.708 |  573427/104268    |
 0:D|  10327/816    |  814282/26068   |   1749179/0.710 |  495178/104268    |
 0:D|   9749/816    |  814282/26068   |   1827422/0.711 |  416935/104268    |
 0:D|  10659/816    |  814282/26068   |   1905666/0.712 |  338691/104268    |
 0:D|   8828/816    |  814282/26068   |   1983917/0.713 |  260440/104268    |
 0:D|  10491/816    |  814282/26069   |   2062179/0.714 |  182178/104268    |
 0:D|   9778/816    |  814282/26068   |   2140414/0.714 |  103943/104268    |
 0:D|   7853/816    |  814282/26068   |   2218662/0.715 |   25695/104268    |
 0:R|  11044/816    |  814282/51751   |   2244359/0.715 | 1122274/114695    |
 0:D|  10220/816    |  814282/28675   |   2307380/0.715 | 1059253/114695    |
 0:D|   9528/816    |  814282/28674   |   2393462/0.716 |  973171/114695    |
----------------------------------------------------------------------------|
ID:T       Vars           Constraints         State            Limits       |
       #free/#fixed   #problem/#learnt  #conflicts/ratio #conflict/#learnt  |
----------------------------------------------------------------------------|
 0:D|   9020/816    |  814282/28674   |   2479540/0.716 |  887093/114695    |
 0:D|   9276/816    |  814282/28674   |   2565606/0.716 |  801027/114695    |
 0:D|   8736/816    |  814282/28674   |   2651660/0.717 |  714973/114695    |
 0:D|   9442/816    |  814282/28674   |   2737713/0.718 |  628920/114695    |
 0:D|   9144/816    |  814282/28674   |   2823782/0.718 |  542851/114695    |
 0:D|   9946/816    |  814282/28674   |   2909839/0.718 |  456794/114695    |
 0:D|   7027/816    |  814282/28674   |   2995898/0.718 |  370735/114695    |
 0:D|   9616/816    |  814282/28675   |   3081961/0.719 |  284672/114695    |
 0:D|  10039/816    |  814282/28675   |   3168018/0.719 |  198615/114695    |
 0:D|  10195/816    |  814282/28675   |   3254067/0.719 |  112566/114695    |
 0:D|  10103/816    |  814282/28674   |   3340120/0.719 |   26513/114695    |
 0:R|  11044/816    |  814282/55171   |   3366636/0.719 | 1683411/126164    |
 0:D|   7128/816    |  814282/31542   |   3437677/0.719 | 1612370/126164    |
 0:D|   9147/816    |  814282/31542   |   3532351/0.719 | 1517696/126164    |
 0:D|  10337/816    |  814282/31542   |   3627010/0.719 | 1423037/126164    |
 0:D|   9264/816    |  814282/31542   |   3721666/0.719 | 1328381/126164    |
 0:D|  10236/816    |  814282/31542   |   3816347/0.719 | 1233700/126164    |
 0:D|   6551/816    |  814282/31542   |   3911015/0.720 | 1139032/126164    |
 0:D|   9339/816    |  814282/31542   |   4005679/0.720 | 1044368/126164    |
 0:D|   8583/816    |  814282/31542   |   4100334/0.720 |  949713/126164    |
----------------------------------------------------------------------------|
ID:T       Vars           Constraints         State            Limits       |
       #free/#fixed   #problem/#learnt  #conflicts/ratio #conflict/#learnt  |
----------------------------------------------------------------------------|
 0:D|   8720/816    |  814282/31542   |   4195003/0.720 |  855044/126164    |
 0:D|   8842/816    |  814282/31542   |   4289669/0.720 |  760378/126164    |
 0:D|   8373/816    |  814282/31542   |   4384325/0.720 |  665722/126164    |
 0:D|   9158/816    |  814282/31542   |   4479000/0.720 |  571047/126164    |
 0:D|  10137/816    |  814282/31542   |   4573658/0.721 |  476389/126164    |
 0:D|   7829/816    |  814282/31542   |   4668314/0.721 |  381733/126164    |
 0:D|   9927/816    |  814282/31542   |   4762976/0.721 |  287071/126164    |
 0:D|   9369/816    |  814282/31542   |   4857626/0.721 |  192421/126164    |
 0:D|   9130/816    |  814282/31542   |   4952280/0.721 |   97767/126164    |
 0:D|   8359/816    |  814282/31542   |   5046925/0.722 |    3122/126164    |
 0:R|  11044/816    |  814282/34662   |   5050047/0.722 | 2525116/138781    |
 0:D|  10103/816    |  814282/34696   |   5154210/0.722 | 2420953/138781    |
 0:D|   8745/816    |  814282/34696   |   5258328/0.722 | 2316835/138781    |
 0:D|   9892/816    |  814282/34696   |   5362480/0.722 | 2212683/138781    |
 0:D|  10017/816    |  814282/34696   |   5466610/0.723 | 2108553/138781    |
 0:D|  10098/816    |  814282/34696   |   5570743/0.722 | 2004420/138781    |
 0:D|   9583/816    |  814282/34696   |   5674873/0.722 | 1900290/138781    |
 0:D|   9613/816    |  814282/34696   |   5778991/0.722 | 1796172/138781    |
 0:D|   6253/816    |  814282/34696   |   5883119/0.722 | 1692044/138781    |
 0:D|  10445/816    |  814282/34696   |   5987244/0.722 | 1587919/138781    |
----------------------------------------------------------------------------|
ID:T       Vars           Constraints         State            Limits       |
       #free/#fixed   #problem/#learnt  #conflicts/ratio #conflict/#learnt  |
----------------------------------------------------------------------------|
 0:D|  10431/816    |  814282/34696   |   6091371/0.723 | 1483792/138781    |
 0:D|  10208/816    |  814282/34696   |   6195497/0.723 | 1379666/138781    |
 0:D|  10089/816    |  814282/34696   |   6299624/0.723 | 1275539/138781    |
 0:D|   7992/816    |  814282/34696   |   6403749/0.723 | 1171414/138781    |
 0:D|  10255/816    |  814282/34697   |   6507878/0.723 | 1067285/138781    |
 0:D|   9127/816    |  814282/34696   |   6611992/0.723 |  963171/138781    |
 0:D|   9153/816    |  814282/34696   |   6716110/0.724 |  859053/138781    |
 0:D|   8564/816    |  814282/34696   |   6820260/0.724 |  754903/138781    |
 0:D|   9862/816    |  814282/34696   |   6924417/0.724 |  650746/138781    |
 0:D|  10578/816    |  814282/34696   |   7028537/0.725 |  546626/138781    |
 0:D|   8774/816    |  814282/34696   |   7132649/0.725 |  442514/138781    |
 0:D|   9549/816    |  814282/34696   |   7236770/0.725 |  338393/138781    |
 0:D|   7626/816    |  814282/34696   |   7340876/0.725 |  234287/138781    |
 0:D|  10275/816    |  814282/34697   |   7444996/0.725 |  130167/138781    |
 0:D|  10258/816    |  814282/34696   |   7549110/0.726 |   26053/138781    |
 0:R|  11044/816    |  814282/60734   |   7575163/0.726 | 3787675/152659    |
 0:D|   9416/816    |  814282/38166   |   7667115/0.725 | 3695723/152659    |
 0:D|   8878/816    |  814282/38166   |   7781658/0.726 | 3581180/152659    |
 0:D|   9995/816    |  814282/38166   |   7896196/0.726 | 3466642/152659    |
 0:D|   9470/816    |  814282/38165   |   8010718/0.726 | 3352120/152659    |
----------------------------------------------------------------------------|
ID:T       Vars           Constraints         State            Limits       |
       #free/#fixed   #problem/#learnt  #conflicts/ratio #conflict/#learnt  |
----------------------------------------------------------------------------|
 0:D|   8242/816    |  814282/38165   |   8125235/0.726 | 3237603/152659    |
 0:D|   9401/816    |  814282/38166   |   8239758/0.726 | 3123080/152659    |
 0:D|   7613/816    |  814282/38165   |   8354292/0.727 | 3008546/152659    |
 0:D|  10101/816    |  814282/38166   |   8468825/0.727 | 2894013/152659    |
 0:D|   9226/816    |  814282/38166   |   8583339/0.727 | 2779499/152659    |
 0:D|   9340/816    |  814282/38166   |   8697859/0.727 | 2664979/152659    |
 0:D|  10219/816    |  814282/38166   |   8812392/0.727 | 2550446/152659    |
 0:D|   9063/816    |  814282/38166   |   8926910/0.727 | 2435928/152659    |
 0:D|   9109/816    |  814282/38165   |   9041430/0.727 | 2321408/152659    |
 0:D|   8949/816    |  814282/38165   |   9155952/0.727 | 2206886/152659    |
 0:D|  10466/816    |  814282/38166   |   9270474/0.727 | 2092364/152659    |
 0:D|   9565/816    |  814282/38165   |   9384985/0.727 | 1977853/152659    |
 0:D|  10421/816    |  814282/38165   |   9499514/0.727 | 1863324/152659    |
 0:D|  10474/816    |  814282/38166   |   9614049/0.728 | 1748789/152659    |
 0:D|  10304/816    |  814282/38165   |   9728564/0.728 | 1634274/152659    |
 0:D|  10244/816    |  814282/38166   |   9843086/0.728 | 1519752/152659    |
 0:D|  10403/816    |  814282/38166   |   9957602/0.728 | 1405236/152659    |
 0:D|   8236/816    |  814282/38166   |  10072149/0.728 | 1290689/152659    |
 0:D|   9247/816    |  814282/38165   |  10186664/0.728 | 1176174/152659    |
 0:D|  10643/816    |  814282/38166   |  10301182/0.728 | 1061656/152659    |
----------------------------------------------------------------------------|
ID:T       Vars           Constraints         State            Limits       |
       #free/#fixed   #problem/#learnt  #conflicts/ratio #conflict/#learnt  |
----------------------------------------------------------------------------|
 0:D|   9879/816    |  814282/38165   |  10415700/0.728 |  947138/152659    |
 0:D|   9116/816    |  814282/38165   |  10530210/0.729 |  832628/152659    |
 0:D|   9598/816    |  814282/38165   |  10644728/0.729 |  718110/152659    |
 0:D|   9993/816    |  814282/38165   |  10759240/0.729 |  603598/152659    |
 0:D|   8316/816    |  814282/38165   |  10873762/0.729 |  489076/152659    |
 0:D|   9200/816    |  814282/38165   |  10988287/0.729 |  374551/152659    |
 0:D|  10567/816    |  814282/38166   |  11102808/0.729 |  260030/152659    |
 0:D|   7350/816    |  814282/38165   |  11217324/0.729 |  145514/152659    |
 0:D|  10444/816    |  814282/38165   |  11331855/0.729 |   30983/152659    |
 0:R|  11044/816    |  814282/69148   |  11362841/0.729 | 5681512/167925    |
 0:D|  10136/816    |  814282/41982   |  11461668/0.729 | 5582685/167925    |
 0:D|   9654/816    |  814282/41982   |  11587646/0.729 | 5456707/167925    |
 0:D|   7949/816    |  814282/41982   |  11713622/0.729 | 5330731/167925    |
 0:D|   9279/816    |  814282/41982   |  11839605/0.729 | 5204748/167925    |
 0:D|  10055/816    |  814282/41982   |  11965580/0.730 | 5078773/167925    |
 0:D|   9894/816    |  814282/41982   |  12091545/0.730 | 4952808/167925    |
 0:D|   9196/816    |  814282/41982   |  12217518/0.730 | 4826835/167925    |
 0:D|   9884/816    |  814282/41982   |  12343492/0.730 | 4700861/167925    |
 0:D|   9200/816    |  814282/41982   |  12469473/0.730 | 4574880/167925    |
 0:D|   6025/816    |  814282/41982   |  12595439/0.731 | 4448914/167925    |
----------------------------------------------------------------------------|
ID:T       Vars           Constraints         State            Limits       |
       #free/#fixed   #problem/#learnt  #conflicts/ratio #conflict/#learnt  |
----------------------------------------------------------------------------|
 0:D|   9881/816    |  814282/41982   |  12721411/0.731 | 4322942/167925    |
 0:D|   9151/816    |  814282/41982   |  12847378/0.731 | 4196975/167925    |
 0:D|   9821/816    |  814282/41982   |  12973345/0.731 | 4071008/167925    |
 0:D|   9796/816    |  814282/41982   |  13099329/0.731 | 3945024/167925    |
 0:D|   8426/816    |  814282/41982   |  13225309/0.731 | 3819044/167925    |
 0:D|   9773/816    |  814282/41982   |  13351291/0.732 | 3693062/167925    |
 0:D|   9355/816    |  814282/41982   |  13477264/0.732 | 3567089/167925    |
 0:D|   9731/816    |  814282/41982   |  13603243/0.732 | 3441110/167925    |
 0:D|   9038/816    |  814282/41982   |  13729214/0.732 | 3315139/167925    |
 0:D|  10017/816    |  814282/41982   |  13855178/0.733 | 3189175/167925    |
 0:D|   8204/816    |  814282/41982   |  13981147/0.733 | 3063206/167925    |
 0:D|   9939/816    |  814282/41982   |  14107112/0.733 | 2937241/167925    |
 0:D|   8931/816    |  814282/41982   |  14233074/0.733 | 2811279/167925    |
 0:D|  10328/816    |  814282/41982   |  14359046/0.733 | 2685307/167925    |
 0:D|   9567/816    |  814282/41982   |  14485010/0.733 | 2559343/167925    |
 0:D|   8488/816    |  814282/41982   |  14610972/0.734 | 2433381/167925    |
 0:D|  10764/816    |  814282/41982   |  14736934/0.734 | 2307419/167925    |
 0:D|   8231/816    |  814282/41982   |  14862903/0.734 | 2181450/167925    |
 0:D|  10105/816    |  814282/41982   |  14988864/0.734 | 2055489/167925    |
 0:D|   8103/816    |  814282/41982   |  15114826/0.735 | 1929527/167925    |
----------------------------------------------------------------------------|
ID:T       Vars           Constraints         State            Limits       |
       #free/#fixed   #problem/#learnt  #conflicts/ratio #conflict/#learnt  |
----------------------------------------------------------------------------|
 0:D|   9635/816    |  814282/41982   |  15240789/0.735 | 1803564/167925    |
 0:D|   6465/816    |  814282/41982   |  15366758/0.735 | 1677595/167925    |
 0:D|   9899/816    |  814282/41982   |  15492729/0.735 | 1551624/167925    |
 0:D|   9621/816    |  814282/41982   |  15618702/0.735 | 1425651/167925    |
 0:D|   9093/816    |  814282/41982   |  15744662/0.735 | 1299691/167925    |
 0:D|   8306/816    |  814282/41982   |  15870633/0.735 | 1173720/167925    |
 0:D|   8578/816    |  814282/41982   |  15996602/0.735 | 1047751/167925    |
 0:D|  10251/816    |  814282/41982   |  16122566/0.735 |  921787/167925    |
 0:D|   9370/816    |  814282/41982   |  16248538/0.735 |  795815/167925    |
 0:D|   9918/816    |  814282/41982   |  16374506/0.735 |  669847/167925    |
 0:D|  10127/816    |  814282/41982   |  16500475/0.735 |  543878/167925    |
 0:D|   7173/816    |  814282/41982   |  16626443/0.735 |  417910/167925    |
 0:D|  10312/816    |  814282/41982   |  16752405/0.735 |  291948/167925    |
 0:D|   8170/816    |  814282/41982   |  16878366/0.735 |  165987/167925    |
 0:D|   9956/816    |  814282/41982   |  17004333/0.735 |   40020/167925    |
 0:R|  11044/816    |  814282/81993   |  17044353/0.735 | 8522269/184717    |
 0:D|   9131/816    |  814282/46181   |  17147115/0.735 | 8419507/184717    |
 0:D|   9087/816    |  814282/46180   |  17285672/0.735 | 8280950/184717    |
 0:D|  10279/816    |  814282/46180   |  17424235/0.735 | 8142387/184717    |
 0:D|  10138/816    |  814282/46180   |  17562799/0.735 | 8003823/184717    |
----------------------------------------------------------------------------|
ID:T       Vars           Constraints         State            Limits       |
       #free/#fixed   #problem/#learnt  #conflicts/ratio #conflict/#learnt  |
----------------------------------------------------------------------------|
 0:D|   9210/816    |  814282/46180   |  17701362/0.735 | 7865260/184717    |
 0:D|  10347/816    |  814282/46180   |  17839919/0.735 | 7726703/184717    |
 0:D|   8824/816    |  814282/46180   |  17978472/0.735 | 7588150/184717    |
 0:D|  10441/816    |  814282/46180   |  18117029/0.736 | 7449593/184717    |
 0:D|  10640/816    |  814282/46180   |  18255586/0.736 | 7311036/184717    |
 0:D|   9852/816    |  814282/46180   |  18394153/0.736 | 7172469/184717    |
 0:D|   8954/816    |  814282/46180   |  18532712/0.736 | 7033910/184717    |
 0:D|   8855/816    |  814282/46180   |  18671274/0.736 | 6895348/184717    |
 0:D|  10232/816    |  814282/46180   |  18809829/0.736 | 6756793/184717    |
 0:D|   8485/816    |  814282/46180   |  18948392/0.736 | 6618230/184717    |
 0:D|  10447/816    |  814282/46180   |  19086953/0.736 | 6479669/184717    |
 0:D|   8094/816    |  814282/46180   |  19225510/0.736 | 6341112/184717    |
 0:D|   9732/816    |  814282/46180   |  19364071/0.736 | 6202551/184717    |
 0:D|   9874/816    |  814282/46180   |  19502640/0.736 | 6063982/184717    |
 0:D|   8735/816    |  814282/46180   |  19641204/0.736 | 5925418/184717    |
 0:D|  10077/816    |  814282/46180   |  19779765/0.736 | 5786857/184717    |
 0:D|   9108/816    |  814282/46180   |  19918335/0.736 | 5648287/184717    |
 0:D|   9614/816    |  814282/46180   |  20056894/0.736 | 5509728/184717    |
 0:D|  10323/816    |  814282/46180   |  20195446/0.736 | 5371176/184717    |
 0:D|  10595/816    |  814282/46180   |  20334005/0.736 | 5232617/184717    |
----------------------------------------------------------------------------|
ID:T       Vars           Constraints         State            Limits       |
       #free/#fixed   #problem/#learnt  #conflicts/ratio #conflict/#learnt  |
----------------------------------------------------------------------------|
 0:D|  10236/816    |  814282/46180   |  20472568/0.736 | 5094054/184717    |
 0:D|  10158/816    |  814282/46180   |  20611124/0.736 | 4955498/184717    |
 0:D|   8728/816    |  814282/46180   |  20749689/0.736 | 4816933/184717    |
 0:D|   8707/816    |  814282/46180   |  20888246/0.736 | 4678376/184717    |
 0:D|   8546/816    |  814282/46180   |  21026808/0.736 | 4539814/184717    |
 0:D|   9141/816    |  814282/46180   |  21165356/0.736 | 4401266/184717    |
 0:D|  10324/818    |  810061/46180   |  21371968/0.736 | 4194654/184717    |
 0:D|   9611/818    |  810061/46180   |  21510547/0.736 | 4056075/184717    |
 0:D|   9205/818    |  810061/46180   |  21649104/0.736 | 3917518/184717    |
 0:D|   8548/818    |  810061/46180   |  21787669/0.736 | 3778953/184717    |
 0:D|  10409/818    |  810061/46180   |  21926225/0.736 | 3640397/184717    |
 0:D|  10298/818    |  810061/46180   |  22064788/0.736 | 3501834/184717    |
 0:D|   9419/818    |  810061/46180   |  22203355/0.736 | 3363267/184717    |
 0:D|   8945/818    |  810061/46180   |  22341924/0.736 | 3224698/184717    |
 0:D|   9285/818    |  810061/46180   |  22480483/0.736 | 3086139/184717    |
 0:D|   9866/820    |  806978/46180   |  22698661/0.736 | 2867961/184717    |
 0:D|   8930/820    |  806978/46180   |  22837238/0.736 | 2729384/184717    |
 0:D|   9778/824    |  803850/46180   |  23008449/0.736 | 2558173/184717    |
 0:D|   9723/824    |  803850/46180   |  23147023/0.736 | 2419599/184717    |
 0:D|  10452/824    |  803850/46180   |  23285590/0.736 | 2281032/184717    |
----------------------------------------------------------------------------|
ID:T       Vars           Constraints         State            Limits       |
       #free/#fixed   #problem/#learnt  #conflicts/ratio #conflict/#learnt  |
----------------------------------------------------------------------------|
 0:D|   8695/824    |  803850/46180   |  23424156/0.736 | 2142466/184717    |
 0:D|   9722/824    |  803850/46180   |  23562717/0.736 | 2003905/184717    |
 0:D|  10358/824    |  803850/46180   |  23701289/0.737 | 1865333/184717    |
 0:D|   9833/824    |  803850/46180   |  23839858/0.737 | 1726764/184717    |
 0:D|  10015/824    |  803850/46180   |  23978427/0.737 | 1588195/184717    |
 0:D|  10447/827    |  801242/46180   |  24164047/0.737 | 1402575/184717    |
 0:D|  10415/827    |  801242/46180   |  24302610/0.737 | 1264012/184717    |
 0:D|   9896/827    |  801242/46180   |  24441184/0.737 | 1125438/184717    |
 0:D|   6159/827    |  801242/46180   |  24579750/0.737 |  986872/184717    |
 0:D|   9930/829    |  797864/46180   |  24752654/0.737 |  813968/184717    |
 0:D|   9717/829    |  797864/46180   |  24891218/0.737 |  675404/184717    |
 0:E|   8530/3330   |  637655/31042   |  25139826/0.737 |  675404/184717    |
----------------------------------------------------------------------------|
UNSATISFIABLE

Models       : 0
Calls        : 1
Time         : 60139.422s (Solving: 60125.05s 1st Model: 0.00s Unsat: 60125.05s)
CPU Time     : 60108.049s

Choices      : 34124159
Conflicts    : 25139826 (Analyzed: 25139825)
Restarts     : 28       (Average: 897850.89 Last: 8095472)
Problems     : 1        (Average Length: 0.00 Splits: 0)
Lemmas       : 25139825 (Deleted: 24575409)
  Binary     : 44       (Ratio:   0.00%)
  Ternary    : 8156     (Ratio:   0.03%)
  Conflict   : 25139825 (Average Length:   72.2 Ratio: 100.00%) 
  Loop       : 0        (Average Length:    0.0 Ratio:   0.00%) 
  Other      : 0        (Average Length:    0.0 Ratio:   0.00%) 
Backjumps    : 25139825 (Average:  1.36 Max:  86 Sum: 34123685)
  Executed   : 25139825 (Average:  1.36 Max:  86 Sum: 34123685 Ratio: 100.00%)
  Bounded    : 0        (Average:  0.00 Max:   0 Sum:      0 Ratio:   0.00%)

Rules        : 1263274 
  Choice     : 816     
Atoms        : 21773   
Bodies       : 1259115 
  Count      : 2854    
Equivalences : 25966    (Atom=Atom: 4712 Body=Body: 1760 Other: 19494)
Tight        : Yes
Variables    : 50441    (Eliminated: 38581 Frozen: 6608)
Constraints  : 814282   (Binary:   0.8% Ternary:   4.8% Other:  94.4%)

